30
1 0 198
2 0 12
2 1 227
3 0 291
3 1 295
3 2 60
4 0 122
4 1 104
4 2 246
4 3 279
5 0 155
5 1 12
5 2 201
5 3 303
6 0 112
6 2 196
6 3 290
6 4 292
6 5 137
7 0 49
7 1 225
7 2 29
7 3 266
7 4 227
7 5 174
7 6 25
8 0 293
8 1 180
8 2 21
8 3 134
8 4 231
8 5 11
8 6 171
8 7 36
9 0 71
9 1 225
9 2 294
9 3 65
9 4 190
9 5 156
9 7 13
9 8 131
10 0 114
10 1 57
10 2 223
10 3 22
10 4 120
10 5 167
10 7 133
10 8 254
10 9 180
11 0 170
11 1 76
11 2 85
11 3 175
11 4 282
11 5 194
11 6 212
11 7 123
11 8 317
11 9 49
11 10 312
12 0 30
12 1 109
12 2 8
12 3 199
12 4 108
12 5 157
12 6 12
12 7 9
12 8 50
12 10 251
13 0 233
13 1 82
13 2 95
13 3 250
13 4 310
13 5 77
13 6 107
13 7 121
13 8 37
13 9 98
13 10 122
13 11 228
13 12 118
14 0 85
14 1 192
14 2 30
14 3 175
14 4 313
14 5 227
14 6 240
14 9 168
14 10 24
14 11 165
14 12 264
14 13 221
15 0 4
15 2 188
15 3 168
15 4 272
15 5 19
15 6 319
15 7 40
15 8 122
15 9 67
15 10 201
15 11 259
15 12 202
15 13 176
15 14 118
16 0 270
16 1 160
16 2 103
16 3 238
16 4 175
16 5 231
16 6 118
16 7 300
16 8 67
16 9 52
16 10 83
16 11 17
16 12 119
16 13 145
16 14 260
16 15 40
17 0 259
17 1 15
17 2 288
17 4 138
17 5 35
17 6 91
17 7 145
17 8 222
17 10 268
17 11 8
17 12 300
17 13 73
17 15 259
17 16 69
18 0 62
18 1 240
18 2 313
18 3 201
18 4 311
18 5 1
18 6 214
18 7 91
18 8 163
18 9 167
18 10 8
18 11 230
18 12 208
18 13 79
18 14 263
18 15 136
18 16 102
18 17 309
19 0 314
19 1 87
19 2 171
19 3 168
19 4 254
19 5 8
19 6 133
19 7 193
19 9 92
19 10 10
19 11 64
19 12 72
19 13 237
19 14 307
19 15 16
19 16 68
19 17 175
19 18 287
20 0 292
20 1 313
20 2 27
20 3 182
20 5 311
20 7 244
20 8 8
20 9 116
20 10 100
20 11 120
20 12 263
20 13 186
20 14 221
20 15 185
20 16 158
20 17 176
20 18 128
20 19 205
21 0 93
21 1 29
21 2 313
21 3 294
21 4 141
21 5 73
21 6 256
21 7 224
21 8 129
21 9 287
21 10 292
21 11 120
21 12 278
21 13 120
21 14 141
21 15 33
21 17 160
21 18 161
21 19 116
21 20 235
22 0 19
22 1 207
22 2 297
22 3 54
22 4 260
22 5 159
22 6 154
22 7 248
22 8 35
22 9 122
22 10 32
22 11 233
22 12 69
22 13 242
22 14 10
22 15 55
22 16 246
22 17 17
22 18 267
22 19 219
22 20 271
22 21 94
23 0 150
23 1 318
23 2 34
23 3 92
23 4 142
23 5 145
23 7 283
23 8 27
23 9 18
23 11 192
23 13 64
23 15 82
23 16 241
23 17 171
23 18 95
23 19 283
23 20 214
23 21 282
24 2 87
24 3 180
24 4 311
24 5 273
24 8 180
24 9 262
24 10 266
24 11 57
24 12 236
24 13 78
24 14 76
24 15 20
24 16 150
24 17 201
24 18 181
24 19 213
24 20 242
24 21 4
24 22 176
24 23 190
25 0 73
25 2 167
25 3 161
25 4 179
25 5 110
25 6 148
25 7 117
25 8 149
25 9 229
25 10 44
25 11 64
25 12 190
25 13 1
25 14 241
25 15 77
25 17 220
25 18 21
25 19 84
25 20 13
25 22 49
25 23 297
25 24 292
26 0 204
26 1 83
26 2 64
26 3 100
26 4 78
26 5 267
26 6 151
26 7 36
26 8 218
26 9 263
26 10 59
26 11 156
26 12 102
26 13 66
26 15 40
26 16 237
26 17 50
26 18 38
26 19 234
26 20 21
26 21 225
26 22 306
26 23 98
26 24 297
26 25 101
27 0 33
27 1 12
27 2 144
27 3 318
27 4 138
27 5 192
27 6 83
27 7 317
27 8 246
27 9 82
27 10 106
27 12 107
27 13 266
27 14 34
27 15 229
27 16 36
27 17 230
27 19 138
27 21 209
27 22 57
27 23 257
27 24 223
27 25 153
27 26 77
28 0 15
28 1 300
28 2 313
28 3 319
28 5 220
28 6 63
28 7 192
28 8 171
28 10 79
28 11 225
28 13 76
28 14 118
28 15 255
28 16 24
28 18 303
28 20 264
28 21 270
28 22 250
28 23 281
28 24 280
28 25 3
28 26 102
28 27 256
29 0 105
29 1 151
29 2 244
29 3 18
29 4 68
29 5 248
29 6 246
29 8 85
29 10 76
29 11 76
29 12 300
29 13 147
29 14 208
29 16 23
29 17 291
29 18 171
29 19 171
29 20 312
29 21 91
29 22 135
29 23 146
29 24 298
29 25 96
29 26 40
29 27 2
29 28 283
